NAME : R202.6985.tour
COMMENT : Cost = 0_6985
COMMENT : Found by LKH [Keld Helsgaun] Wed Sep 13 18:34:14 2017
TYPE : TOUR
DIMENSION : 55
TOUR_SECTION
1
38
43
16
15
45
17
39
44
3
14
54
32
8
49
48
37
46
9
19
7
53
22
40
24
42
23
41
52
29
51
34
4
30
10
21
11
33
36
35
25
5
26
13
27
55
28
2
31
12
20
50
47
18
6
-1
EOF
